10	10
4	90	9	81	3	6	6	75	8	43	2	2	7	27	1	70	5	92	0	58
2	58	6	95	4	42	5	12	0	7	1	91	9	78	8	29	7	30	3	54
4	47	6	58	2	93	0	34	5	95	9	17	7	11	3	21	1	2	8	84
0	41	1	76	6	49	4	47	2	85	5	5	9	77	8	12	3	76	7	7
4	76	6	81	5	96	9	48	3	78	2	26	8	63	1	86	7	79	0	22
0	17	6	4	9	14	7	74	4	23	1	36	5	28	3	20	2	85	8	69
8	58	2	49	1	92	6	87	7	38	9	96	4	72	3	44	0	65	5	22
7	66	8	14	3	79	0	89	4	61	6	32	2	60	1	75	5	79	9	72
6	26	0	5	7	85	8	25	2	52	9	22	3	53	1	56	5	65	4	25
7	6	5	79	6	55	9	40	0	88	2	83	4	64	1	37	3	59	8	79
